g3 1 1 0	# problem Deb513
 2 0 2 0 0	# vars, constraints, objectives, ranges, eqns
 0 2	# nonlinear constraints, objectives
 0 0	# network constraints: nonlinear, linear
 0 2 0	# nonlinear vars in constraints, objectives, both
 0 0 0 1	# linear network variables; functions; arith, flags
 0 0 0 0 0	# discrete variables: binary, integer, nonlinear (b,c,o)
 0 3	# nonzeros in Jacobian, gradients
 0 0	# max name lengths: constraints, variables
 0 0 1 0 2	# common exprs: b,c,o,c1,o1
V2 1 0
0 1
n0
O0 0
v2
V3 1 2
1 10
n1
V4 0 2
o16
o54
3
o5
o3
v2
v3
n2
o2
o3
v2
v3
o41
o2
n25.132741228718345
v2
n-1
O1 0
o2
v3
v4
b
0 0 1
0 0 1
k1
0
G0 1
0 0
G1 2
0 0
1 0
